unsat
(:max-memory         18.43
 :memory             18.33
 :nlsat-arith-var    3
 :nlsat-atoms        12
 :nlsat-bool-var     1
 :nlsat-clauses      12
 :nlsat-conflicts    1
 :nlsat-propagations 8
 :nlsat-stages       3
 :num-allocs         50882
 :rlimit-count       1396
 :time               0.00
 :total-time         0.02)
